(declare-const X String)
; Authorization\x3a\s+Host\x3a
(assert (not (str.in_re X (re.++ (str.to_re "Authorization:") (re.+ (re.union (str.to_re " ") (str.to_re "\u{9}") (str.to_re "\u{a}") (str.to_re "\u{c}") (str.to_re "\u{d}"))) (str.to_re "Host:\u{a}")))))
; /new (java|org)/Ui
(assert (str.in_re X (re.++ (str.to_re "/new ") (re.union (str.to_re "java") (str.to_re "org")) (str.to_re "/Ui\u{a}"))))
; ^(http(s)?\:\/\/\S+)\s
(assert (str.in_re X (re.++ (re.union (str.to_re " ") (str.to_re "\u{9}") (str.to_re "\u{a}") (str.to_re "\u{c}") (str.to_re "\u{d}")) (str.to_re "\u{a}http") (re.opt (str.to_re "s")) (str.to_re "://") (re.+ (re.comp (re.union (str.to_re " ") (str.to_re "\u{9}") (str.to_re "\u{a}") (str.to_re "\u{c}") (str.to_re "\u{d}")))))))
; AID\x2FHost\x3aHourskl\x2Esearch\x2Eneed2find\x2EcomHost\x3aHost\x3A
(assert (not (str.in_re X (str.to_re "AID/Host:Hourskl.search.need2find.comHost:Host:\u{a}"))))
; /^exec\x7c\d+\x7c\d+\x7C[a-z0-9]+\x2E[a-z]{2,3}\x7C[a-z0-9]+\x7C/
(assert (not (str.in_re X (re.++ (str.to_re "/exec|") (re.+ (re.range "0" "9")) (str.to_re "|") (re.+ (re.range "0" "9")) (str.to_re "|") (re.+ (re.union (re.range "a" "z") (re.range "0" "9"))) (str.to_re ".") ((_ re.loop 2 3) (re.range "a" "z")) (str.to_re "|") (re.+ (re.union (re.range "a" "z") (re.range "0" "9"))) (str.to_re "|/\u{a}")))))
(check-sat)

(exit)
